Route #1: 1 24 10 29 8 33 14 21 11 1
Route #2: 1 15 36 32 39 27 30 1
Route #3: 1 40 37 43 5 17 23 13 3 1
Route #4: 1 2 45 7 25 35 12 20 31 1
Route #5: 1 26 16 4 9 42 34 22 6 18 1
Route #6: 1 44 28 38 41 19 1
cost 1122
